! Touchstone file exported from HFSS 2023.1.0
!        Generated:      10:58:37 %x4E0B%x5348  9%x6708 11, 2026
!        Design:         O_INPUT_GSG150
!        Project:        O_input_GSG150_HFSS_screening
!        Setup:          Setup_RF
!        Solution:       Sweep_RF
!
!Data is not renormalized
# GHz S MA
! Terminal data exported
! Port[1] = P1_Odd
! Port[2] = P1_CPW
! Port[3] = P2_Odd
! Port[4] = P2_CPW
8                              0.0412275223632034 -94.7397127448559 0.000713678149182162 -120.562860268317 0.991162702318397 -17.2897130296982 0.00036935554063405 -145.318419788354
                               0.00071367826597625 -120.562862030711 0.0148131091873635 -8.65031358269469 0.000294479200166043 -91.7164198400974 0.985622494310256 -15.1586157377897
                               0.991162702317143 -17.2897130297034 0.000294479139375222 -91.7164218389756 0.0403616137824462 -99.4344782305783 0.000740605524005089 -83.1928183602952
                               0.000369355555459133 -145.318408818629 0.985622494311512 -15.1586157377859 0.00074060556604847 -83.1928072424583 0.0134387334772391 -6.73937764100768
! Gamma         0                0                0                0                0                0                0                0
! Port Impedance         100              0                50               0                100              0                50               0
8.05                           0.0414853069743402 -94.8864563572946 0.000719196525225539 -120.730356770012 0.991140595069502 -17.3968339015037 0.000371900259067771 -145.536965942114
                               0.000719196636845576 -120.730358480149 0.014831182665715 -8.78488075156491 0.000296507575021535 -91.6715880672828 0.985609322317894 -15.2520099617411
                               0.991140595068969 -17.396833901515 0.000296507515680584 -91.671589621417 0.0406140248958816 -99.6113653941458 0.000746801538509767 -83.2500860099901
                               0.000371900275492152 -145.536955500383 0.985609322318434 -15.25200996173  0.000746801582190114 -83.2500755424385 0.0134389473073441 -6.86757151062779
! Gamma         0                0                0                0                0                0                0                0
! Port Impedance         100              0                50               0                100              0                50               0
8.1                            0.0417428983677361 -95.0326195810452 0.000724754762842971 -120.901513747901 0.991118550775386 -17.503952654779 0.000374488686388318 -145.756980503606
                               0.000724754869384191 -120.901515409817 0.0148491801131424 -8.91878350797876 0.000298527457727043 -91.6213076726273 0.985596265859085 -15.3454043680407
                               0.991118550775517 -17.5039526547958 0.000298527399814047 -91.6213088039754 0.0408661733051023 -99.787636594517 0.000752996616244791 -83.3053318949013
                               0.000374488704355973 -145.756970569823 0.985596265858966 -15.3454043680232 0.00075299666154527 -83.3053220569374 0.0134390966471961 -6.99448040416873
! Gamma         0                0                0                0                0                0                0                0
! Port Impedance         100              0                50               0                100              0                50               0
8.15                           0.0420002960970251 -95.1782108380584 0.000730352002093289 -121.076094516483 0.991096566863092 -17.6110693895557 0.000377119830368475 -145.978369296417
                               0.000730352103651472 -121.076096133963 0.0148671048221739 -9.0520215804848 0.000300539615188615 -91.5658367687515 0.985583322902119 -15.4387990340586
                               0.991096566863832 -17.6110693895772 0.000300539558682422 -91.5658374987052 0.041118061334169 -99.9633026123474 0.000759192082981822 -83.3587073662283
                               0.000377119849823287 -145.978359850988 0.985583322901393 -15.4387990340354 0.000759192129883899 -83.3586981375844 0.0134391807479641 -7.12012489206179
! Gamma         0                0                0                0                0                0                0                0
! Port Impedance         100              0                50               0                100              0                50               0
8.2                            0.0422574997194407 -95.323238386218 0.000735987434493306 -121.253871476476 0.991074640775716 -17.7181842023036 0.000379792720017123 -146.201040791351
                               0.000735987531163802 -121.253873053024 0.0148849599913729 -9.18459475192985 0.000302544800168946 -91.5054241346887 0.985570491425192 -15.5321940348545
                               0.991074640777013 -17.718184202329 0.000302544745049172 -91.5054244842657 0.0413696912432772 -100.13837396315 0.000765389219441799 -83.4103559281023
                               0.000379792740902759 -146.20103181508 0.985570491423912 -15.5321940348264 0.000765389267924033 -83.4103472889355 0.013439198884722 -7.24452505040365
! Gamma         0                0                0                0                0                0                0                0
! Port Impedance         100              0                50               0                100              0                50               0
8.25                           0.0425145087952597 -95.4677103226043 0.000741660299529575 -121.434625865737 0.991052769972621 -17.8252971860235 0.000382506404780416 -146.424906147751
                               0.000741660391407823 -121.434627404498 0.0149027487282101 -9.31650285609592 0.000304543751000782 -91.4403097484118 0.985557769416957 -15.6255894432413
                               0.991052769974425 -17.8252971860523 0.000304543697247221 -91.440309738191 0.0416210652301749 -100.312860904843 0.000771589262470634 -83.4604136660932
                               0.000382506427039731 -146.424897621808 0.985557769415173 -15.6255894432091 0.000771589312509697 -83.4604055970444 0.0134391503557885 -7.36770047580787
! Gamma         0                0                0                0                0                0                0                0
! Port Impedance         100              0                50               0                100              0                50               0
8.3                            0.0427713228872859 -95.6116345867057 0.000747369881403138 -121.618147507507 0.991030951929618 -17.9324084303377 0.000385259953776522 -146.649879242684
                               0.000747369968584121 -121.618149011457 0.0149204740518474 -9.44774577462516 0.000306537191340645 -91.3707252798336 0.985545154877042 -15.7189853298483
                               0.991030951931878 -17.9324084303692 0.000306537138933308 -91.3707249299474 0.041872185431544 -100.486773445064 0.000777793406203771 -83.509009647456
                               0.000385259977352743 -146.649871148816 0.985545154874804 -15.7189853298126 0.000777793457774201 -83.5090021294601 0.0134390344820824 -7.48967029971216
! Gamma         0                0                0                0                0                0                0                0
! Port Impedance         100              0                50               0                100              0                50               0
8.35                           0.0430279415603621 -95.7550189635829 0.000753115505989697 -121.804234557688 0.991009184139118 -18.0395180215781 0.000388052455066952 -146.87587668891
                               0.000753115588567843 -121.804236029392 0.0149381388958393 -9.5783234342276 0.000308525829963752 -91.2968945453493 0.985532645816524 -15.8123817631816
                               0.991009184141789 -18.0395180216118 0.000308525778883078 -91.2968938754296 0.0421230539243345 -100.660121348257 0.000784002803214221 -83.556266295122
                               0.000388052479902221 -146.875869009122 0.985532645813877 -15.812381763143 0.000784002856288228 -83.5562593096174 0.0134388506064874 -7.61045320217819
! Gamma         0                0                0                0                0                0                0                0
! Port Impedance         100              0                50               0                100              0                50               0
8.4                            0.0432843643809193 -95.8978710869742 0.000758896538007224 -121.992693252158 0.990987464110268 -18.1466260428723 0.000390883014956812 -147.102817842158
                               0.000758896616076635 -121.992694694048 0.0149557461107437 -9.7082358041413 0.000310510360593845 -91.2190339281121 0.985520240258359 -15.9057788096847
                               0.990987464113304 -18.1466260429077 0.000310510310820366 -91.2190329577082 0.0423736727270642 -100.832914142548 0.000790218565647226 -83.6022997378855
                               0.00039088304099362 -147.102810559034 0.985520240255349 -15.9057788096438 0.000790218620195576 -83.6022932665319 0.0134385980932397 -7.73006742519695
! Gamma         0                0                0                0                0                0                0                0
! Port Impedance         100              0                50               0                100              0                50               0
8.45                           0.0435405909165525 -96.040198442356 0.000764712378373012 -122.183337655297 0.990965789369052 -18.2537325742274 0.000393750757331682 -147.330624799961
                               0.000764712452027111 -122.183339069413 0.0149732984666554 -9.83748289383682 0.000312491461764253 -91.1373527678955 0.985507936237794 -15.9991765337968
                               0.990965789372409 -18.253732574264 0.00031249141327877 -91.137351515702 0.0426240438010758 -101.005161126403 0.000796441766334588 -83.647220138459
                               0.000393750784511229 -147.330617896342 0.985507936234463 -15.9991765337542 0.000796441822325875 -83.6472141633858 0.0134382763273251 -7.84853078553102
! Gamma         0                0                0                0                0                0                0                0
! Port Impedance         100              0                50               0                100              0                50               0
8.5                            0.0437966207356281 -96.1820083699403 0.000770562461741542 -122.37598941065 0.990944157458378 -18.3608376926116 0.000396654823017173 -147.559222390599
                               0.000770562531072939 -122.375990798804 0.0149907986556645 -9.96606475092832 0.000314469796710005 -91.0520537196841 0.985495731802724 -16.0925749980104
                               0.990944157462015 -18.3608376926489 0.000314469749493059 -91.0520522045257 0.0428741690517597 -101.176871375092 0.000802673439890942 -83.6911320011848
                               0.00039665485128099 -147.559215849854 0.985495731799114 -16.0925749979666 0.000802673497292138 -83.6911265048189 0.0134378847138894 -7.96586068708888
! Gamma         0                0                0                0                0                0                0                0
! Port Impedance         100              0                50               0                100              0                50               0
8.55                           0.044052453406915 -96.3233080676299 0.000776446254208359 -122.570477494493 0.990922565938137 -18.4679414720336 0.00039959436917332 -147.788538155816
                               0.000776446319308952 -122.570478858242 0.0150082492942327 -10.0939814593056 0.000316446013284804 -90.9633330874886 0.985483625014035 -16.1859742629268
                               0.990922565942014 -18.4679414720711 0.000316445967317254 -90.9633313274647 0.0431240503297393 -101.34805374695 0.000808914583787263 -83.7341344609411
                               0.000399594398462078 -147.788531961715 0.985483625010187 -16.1859742628824 0.000808914642563814 -83.7341294260316 0.0134374226776683 -8.08207413288591
! Gamma         0                0                0                0                0                0                0                0
! Port Impedance         100              0                50               0                100              0                50               0
8.6                            0.0443080884992445 -96.4641045939224 0.000782363251172742 -122.766637973018 0.990901012385249 -18.5750439836205 0.0004025685687136 -148.018502325935
                               0.000782363312133457 -122.766639313695 0.0150256529255022 -10.2212331374451 0.000318420743904217 -90.8713811317634 0.985471613945907 -16.2793743873115
                               0.990901012389327 -18.5750439836579 0.000318420699166459 -90.8713791447586 0.0433736894320253 -101.518716889443 0.000815166159404881 -83.7763215546086
                               0.000402568598967217 -148.018496462575 0.985471613941858 -16.2793743872669 0.000815166219520665 -83.7763169641904 0.0134368896624262 -8.19718773658239
! Gamma         0                0                0                0                0                0                0                0
! Port Impedance         100              0                50               0                100              0                50               0
8.65                           0.0445635255811897 -96.6044048707549 0.00078831297534552 -122.964313763609 0.990879494393681 -18.6821452956931 0.000405576609748081 -148.249047788798
                               0.000788313032256362 -122.964315082297 0.015043012021531 -10.3478199368936 0.000320394605510147 -90.7763823546544 0.98545969668609 -16.3727754281473
                               0.990879494397924 -18.6821452957299 0.000320394561982524 -90.776380158284 0.0436230881031318 -101.688869245055 0.000821429093065117 -83.8177824764908
                               0.000405576640906658 -148.249042240796 0.985459696681876 -16.3727754281029 0.000821429154482756 -83.817778313907 0.0134362851304133 -8.31121773361556
! Gamma         0                0                0                0                0                0                0                0
! Port Impedance         100              0                50               0                100              0                50               0
8.7                            0.0448187642207697 -96.7442156863065 0.000794294974895459 -123.163354400781 0.990858009574457 -18.7892454738393 0.000408617695054401 -148.480110053687
                               0.000794295027845296 -123.163355698278 0.0150603289854623 -10.4737420409173 0.00032236819955548 -90.6785157644627 0.985447871336153 -16.4661774406865
                               0.990858009578829 -18.7892454738753 0.000322368157218161 -90.6785133759537 0.0438722480361637 -101.858519056998 0.000827704277037475 -83.858601818707
                               0.000408617727057096 -148.480104805984 0.98544787133181 -16.4661774406427 0.000827704339718026 -83.8585980676312 0.0134356085618325 -8.42417999195978
! Gamma         0                0                0                0                0                0                0                0
! Port Impedance         100              0                50               0                100              0                50               0
8.75                           0.0450738039851752 -96.8835436977466 0.00080030882172368 -123.363615806894 0.99083655555564 -18.8963445809862 0.000411691041572469 -148.711627210421
                               0.000800308870799452 -123.363617083713 0.0150776061536256 -10.5989996633004 0.000324342112009492 -90.5779551198793 0.985436136011712 -16.5595804785022
                               0.990836555560108 -18.8963445810211 0.00032434207084202 -90.5779525562029 0.0441211708738734 -102.027674374737 0.00083399257052411 -83.8988597979108
                               0.000411691074358116 -148.711622248407 0.985436136007272 -16.5595804784594 0.000833992634426482 -83.8988564423358 0.0134348594543229 -8.53609002251825
! Gamma         0                0                0                0                0                0                0                0
! Port Impedance         100              0                50               0                100              0                50               0
8.8                            0.0453286444405124 -97.022395433931 0.000806354109854138 -123.564960068025 0.990815129982314 -19.0034426774693 0.000414795879918389 -148.943539884036
                               0.000806354155142565 -123.56496132464 0.0150948457975801 -10.7235930472761 0.000326316913377748 -90.4748691569002 0.985424488842624 -16.6529845935376
                               0.990815129986846 -19.0034426775026 0.000326316873360015 -90.4748664346013 0.0443698582096853 -102.19634305936 0.000840294800616753 -83.9386324691597
                               0.000414795913425025 -148.94353519341 0.985424488838119 -16.6529845934962 0.00084029486570025 -83.9386294932001 0.0134340373224525 -8.64696298915392
! Gamma         0                0                0                0                0                0                0                0
! Port Impedance         100              0                50               0                100              0                50               0
8.85                           0.0455832851515641 -97.1607772980589 0.000812430453942212 -123.767255215784 0.990793730516532 -19.1105398211005 0.000417931453922791 -149.175791186041
                               0.000812430495527694 -123.767256452232 0.0151120501260887 -10.8475224645855 0.000328293158741013 -90.3694217988705 0.985412927973165 -16.7463898361551
                               0.990793730521097 -19.110539821132 0.000328293119851572 -90.3694189344028 0.044618311588693 -102.364532788772 0.000846611763238238 -83.9779919274733
                               0.000417931488088129 -149.175786752961 0.985412927968627 -16.7463898361154 0.000846611829459369 -83.977989315698 0.0134331416972286 -8.75681371839089
! Gamma         0                0                0                0                0                0                0                0
! Port Impedance         100              0                50               0                100              0                50               0
8.9                            0.0458377256815731 -97.2986955702635 0.000818537487881059 -123.970375014032 0.990772354837267 -19.2176360672343 0.000421097020189276 -149.408326662743
                               0.000818537525846844 -123.970376230282 0.0151292212870378 -10.9707882146524 0.00033027138780586 -90.2617723517364 0.985401451562188 -16.8397962551833
                               0.990772354841837 -19.2176360672638 0.000330271350023684 -90.2617693610743 0.0448665325086282 -102.532251062748 0.000852944224050648 -84.0170064988115
                               0.000421097054950279 -149.408322473658 0.985401451557644 -16.8397962551456 0.000852944291365525 -84.0170042359259 0.0134321721256193 -8.86565670878515
! Gamma         0                0                0                0                0                0                0                0
! Port Impedance         100              0                50               0                100              0                50               0
8.95                           0.0460919655920372 -97.4361564101746 0.000824674863508985 -124.174198751865 0.99075100064034 -19.324731468832 0.000424291847670028 -149.641094240619
                               0.000824674897936661 -124.174199947684 0.0151463613693022 -11.0933906238664 0.000332252124971779 -90.1520756843853 0.985390057783251 -16.933203897963
                               0.990751000644887 -19.3247314688593 0.000332252088274861 -90.1520725833777 0.0451145224208037 -102.699505207811 0.000859292919346544 -84.0557409202757
                               0.000424291882963306 -149.641090282449 0.98539005777873 -16.9332038979276 0.000859292987710111 -84.055738991239 0.0134311281700831 -8.97350613998534
! Gamma         0                0                0                0                0                0                0                0
! Port Impedance         100              0                50               0                100              0                50               0
9                              0.0463460044425198 -97.5731658594195 0.000830842249405 -124.378611042166 0.990729665638341 -19.4318260765242 0.000427515217263167 -149.874044169943
                               0.000830842280374332 -124.378612217058 0.0151634724045459 -11.2153300449552 0.000334235879408547 -90.0404823970782 0.985378744824736 -17.0266128103928
                               0.990729665642838 -19.4318260765491 0.000334235843774406 -90.0404792011841 0.0453622827310276 -102.86630238198 0.000865658556912331 -84.0942565107958
                               0.00042751525302436 -149.874040429873 0.985378744820263 -17.02661281036  0.000865658626278148 -84.0942549008651 0.0134300094081197 -9.08037588148855
! Gamma         0                0                0                0                0                0                0                0
! Port Impedance         100              0                50               0                100              0                50               0
9.05                           0.0465998417904799 -97.7097298440781 0.000837039329770574 -124.583501626105 0.990708347560534 -19.5389199386719 0.000430766421425401 -150.107128966476
                               0.000837039357359901 -124.58350277947 0.0151805563689808 -11.3366068564621 0.000336223145146559 -89.9271389769019 0.985367510889943 -17.1200230369727
                               0.990708347564958 -19.5389199386941 0.000336223110552476 -89.9271357013249 0.0456098148004956 -103.032649579371 0.000872041816870845 -84.1326113327284
                               0.000430766457590077 -150.107125432086 0.985367510885542 -17.1200230369426 0.000872041887192029 -84.1326100273404 0.0134288154318224 -9.18627950111505
! Gamma         0                0                0                0                0                0                0                0
! Port Impedance         100              0                50               0                100              0                50               0
9.1                            0.0468534771911099 -97.8458541770954 0.000843265803388928 -124.788765183318 0.990687044152758 -19.6460131014254 0.000434044763802289 -150.340303351682
                               0.000843265827674304 -124.788766314321 0.0151976151850648 -11.4572214622837 0.000338214401178011 -89.8121879431419 0.985356354197166 -17.2134346208465
                               0.990687044157085 -19.6460131014448 0.000338214367600238 -89.8121846029945 0.0458571199466563 -103.198553634654 0.000878443352499053 -84.170860345151
                               0.000434044800305073 -150.340300010917 0.985356354192861 -17.2134346208194 0.000878443423727023 -84.1708593300201 0.0134275458474503 -9.29123027319242
! Gamma         0                0                0                0                0                0                0                0
! Port Impedance         100              0                50               0                100              0                50               0
9.15                           0.0471069101971905 -97.9815445606492 0.0008495213826569 -124.994301148041 0.990665753177314 -19.7531056087819 0.000437349558873134 -150.57352419208
                               0.000849521403712685 -124.994302255677 0.0152146507231547 -11.5771742913035 0.000340210111567337 -89.6957679819678 0.985345272979762 -17.3068476038442
                               0.990665753181521 -19.7531056087983 0.000340210078981846 -89.6957645918843 0.0461041994440559 -103.364021227378 0.000884863791022655 -84.2090555491395
                               0.000437349595648611 -150.573521033211 0.985345272975574 -17.3068476038202 0.000884863863108215 -84.2090548102252 0.0134262002750069 -9.39524118648656
! Gamma         0                0                0                0                0                0                0                0
! Port Impedance         100              0                50               0                100              0                50               0
9.2                            0.0473601403589565 -98.1168065884614 0.000855805792686872 -125.20001353102 0.99064447241284 -19.8601975026418 0.000440680131613803 -150.806750437849
                               0.000855805810585259 -125.200014614193 0.0152316648031091 -11.6964657970738 0.000342210725572006 -89.5780140717088 0.985334265486189 -17.4002620265221
                               0.990644472416908 -19.8601975026552 0.000342210693953982 -89.5780106461622 0.0463510545251569 -103.529058886171 0.000891303734389585 -84.2472461256607
                               0.000440680168595293 -150.806747449487 0.985334265482138 -17.4002620265014 0.000891303807282609 -84.2472456490693 0.0134247783478329 -9.49832495186175
! Gamma         0                0                0                0                0                0                0                0
! Port Impedance         100              0                50               0                100              0                50               0
9.25                           0.0476131672239716 -98.2516457480813 0.000862118770470208 -125.405810747153 0.990623199654187 -19.9672888228631 0.00044403581717042 -151.039943060937
                               0.000862118785281425 -125.405811804576 0.0152486591958442 -11.8150964575744 0.000344216677771271 -89.4590576000876 0.985323329980044 -17.4936779282023
                               0.990623199658098 -19.9672888228733 0.00034421664709515 -89.4590541533639 0.0465976863811367 -103.693672992804 0.000897763760019918 -84.2854785664984
                               0.000444035854290574 -151.039940231941 0.98532332997615 -17.4936779281851 0.000897763833669396 -84.2854783386008 0.0134232797122087 -9.60049400970615
! Gamma         0                0                0                0                0                0                0                0
! Port Impedance         100              0                50               0                100              0                50               0
9.3                            0.0478659903370199 -98.3860674231056 0.000868460064100544 -125.611605448519 0.990601932712277 -20.0743796073142 0.000447415960548212 -151.273064992856
                               0.000868460075892797 -125.611606478827 0.0152656356248462 -11.9330667750149 0.000346228388203508 -89.33902647321  0.98531246474008 -17.5870953470115
                               0.990601932716013 -20.0743796073211 0.00034622835844319 -89.3390230193078 0.0468440961626655 -103.857869786146 0.000904244421533595 -84.3237967989162
                               0.000447415997739653 -151.27306231247 0.98531246473636 -17.5870953469979 0.000904244495887874 -84.3237968062347 0.0134217040269672 -9.70176053710474
! Gamma         0                0                0                0                0                0                0                0
! Port Impedance         100              0                50               0                100              0                50               0
9.35                           0.0481186092400012 -98.5200768953705 0.000874829432053065 -125.817314363505 0.990580669413964 -20.1814698919254 0.000450819916314682 -151.506081062756
                               0.000874829440892125 -125.817315365165 0.01528259576764 -12.0503772756946 0.000348246262511161 -89.2180452172109 0.985301668060209 -17.6805143199185
                               0.990580669417507 -20.181469891929 0.000348246233639491 -89.2180417699596 0.0470902849806616 -104.021655365988 0.000910746249459578 -84.3622423036792
                               0.000450819953509264 -151.50607852058 0.98530166805668 -17.6805143199086 0.000910746324465861 -84.362242532985 0.0134200509631164 -9.80213645479273
! Gamma         0                0                0                0                0                0                0                0
! Port Impedance         100              0                50               0                100              0                50               0
9.4                            0.0483710234718417 -98.6536793470903 0.000881226642511851 -126.022858140686 0.990559407601874 -20.2885597107393 0.000454247048313017 -151.7389579357
                               0.000881226648461494 -126.022859112041 0.0152995412572122 -12.1670285099075 0.00035027069209187 -89.0962350737531 0.985290938249498 -17.7739348827702
                               0.99055940760521 -20.2885597107395 0.000350270664081565 -89.0962316465468 0.0473362539070301 -104.185035696763 0.000917269751919011 -84.4008542279645
                               0.000454247085441347 -151.738955521477 0.985290938246174 -17.7739348827641 0.000917269827523954 -84.400854666227 0.0134183202034749 -9.90163343388895
! Gamma         0                0                0                0                0                0                0                0
! Port Impedance         100              0                50               0                100              0                50               0
9.45                           0.048623232568408 -98.7868798629587 0.000887651472749267 -126.228161198502 0.990538145134258 -20.3956490959592 0.000457696729387741 -151.971664051009
                               0.000887651475870838 -126.228162137805 0.0153164736833975 -12.2830210518787 0.000352302054258597 -88.9737140886052 0.98528027363215 -17.8673570703277
                               0.990538145137373 -20.395649095956 0.000352302027081076 -88.9737106948313 0.0475820039753777 -104.348016611149 0.000923815415293763 -84.4396694924269
                               0.00045769676638025 -151.971661754886 0.985280273629045 -17.8673570703255 0.000923815491443176 -84.4396701267998 0.0134165114423145 -10.0002629024033
! Gamma         0                0                0                0                0                0                0                0
! Port Impedance         100              0                50               0                100              0                50               0
9.5                            0.0488752360624357 -98.9196834322036 0.000894103708545083 -126.433151580068 0.990516879884822 -20.5027380779966 0.000461168341121585 -152.204169561592
                               0.000894103708897309 -126.433152485416 0.0153333945942238 -12.3983554997488 0.000354340712402359 -88.8505971958085 0.985269672547473 -17.9607809163006
                               0.990516879887704 -20.5027380779899 0.00035434068602838 -88.8505938485789 0.0478275361817131 -104.510603813569 0.000930383704870272 -84.4787228932182
                               0.000461168377908551 -152.20416737403 0.9852696725446  -17.9607809163023 0.000930383781508718 -84.4787237110925 0.0134146243850131 -10.0980360515547
! Gamma         0                0                0                0                0                0                0                0
! Port Impedance         100              0                50               0                100              0                50               0
9.55                           0.0491270334834627 -99.0520949506056 0.000900583143648963 -126.637760812746 0.990495609742564 -20.6098266855171 0.000464661273584243 -152.436446273919
                               0.000900583141288455 -126.637761682261 0.0153503054972182 -12.5130324755815 0.000356387016163811 -88.7269962956606 0.985259133349844 -18.0542064533804
                               0.990495609745201 -20.6098266855068 0.000356386990563373 -88.7269930077895 0.0480728514851287 -104.672802883587 0.000936975065465069 -84.5180471994831
                               0.000464661310094634 -152.436444185583 0.985259133347213 -18.0542064533861 0.000936975142537142 -84.518048188336 0.0134126587477176 -10.1949638418801
! Gamma         0                0                0                0                0                0                0                0
! Port Impedance         100              0                50               0                100              0                50               0
9.6                            0.0493786243577703 -99.1841192224703 0.000907089579281204 -126.841923773196 0.9904743326116  -20.7169149454849 0.000468174925087626 -152.668467588451
                               0.000907089574262133 -126.841924604813 0.0153672078606781 -12.6270526254054 0.000358441301608269 -88.6030203287251 0.985248654408657 -18.1476337132737
                               0.990474332613983 -20.7169149454713 0.000358441276750632 -88.603017112907 0.0483179508084621 -104.8346192792  0.000943589922033273 -84.5576732458653
                               0.000468174961249999 -152.668465590284 0.985248654406281 -18.1476337132834 0.000943589999482529 -84.5576743934497 0.0134106142570145 -10.2910570091584
! Gamma         0                0                0                0                0                0                0                0
! Port Impedance         100              0                50               0                100              0                50               0
9.65                           0.0496300082083319 -99.3157609625691 0.000913622823668178 -127.045578556783 0.990453046410987 -20.824002883207 0.000471708701955053 -152.90020844161
                               0.000913622816042075 -127.045579348387 0.0153841031149004 -12.7404166192716 0.000360503891406732 -88.4787753452784 0.985238234108271 -18.2410627267337
                               0.990453046413107 -20.8240028831899 0.000360503867260441 -88.4787722138878 0.0485628350389439 -104.996058340031 0.000950228680256224 -84.5976300210978
                               0.000471708737696833 -152.900206524774 0.985238234106156 -18.2410627267473 0.00095022875802527 -84.5976313153227 0.0134084906496151 -10.3863260701471
! Gamma         0                0                0                0                0                0                0                0
! Port Impedance         100              0                50               0                100              0                50               0
9.7                            0.0498811845547714 -99.4470247980252 0.000920182691612114 -127.248666351868 0.990431749074547 -20.9310905223746 0.000475262018296514 -153.131645248315
                               0.000920182681428067 -127.248667101337 0.0154009926533871 -12.8531251513452 0.0003625750950215 -88.3543645709204 0.985227870847938 -18.3344935235911
                               0.990431749076395 -20.931090522354 0.000362575071553965 -88.3543615361478 0.0488075050288283 -105.157125290442 0.000956891727112256 -84.6379447523822
                               0.000475262053545454 -153.131643404344 0.985227870846093 -18.3344935236087 0.000956891805143487 -84.6379461812856 0.0134062876720378 -10.4807813281435
! Gamma         0                0                0                0                0                0                0                0
! Port Impedance         100              0                50               0                100              0                50               0
9.75                           0.0501321529133225 -99.577915270177 0.00092676900408896 -127.451131318731 0.990410438550678 -21.0381778851044 0.000478834295793527 -153.362755845853
                               0.000926768991393759 -127.451132023792 0.0154178778340048 -12.9651789400036 0.000364655208894825 -88.2298884688544 0.985217563041734 -18.4279261327844
                               0.990410438552249 -21.0381778850804 0.000364655186072759 -88.2298855428348 0.0490519615960058 -105.317825242541 0.000963579431429286 -84.678642985842
                               0.000478834330476204 -153.362754066442 0.985217563040164 -18.427926132806 0.00096357950966421 -84.6786445377165 0.0134040050803115 -10.5744328783744
! Gamma         0                0                0                0                0                0                0                0
! Port Impedance         100              0                50               0                100              0                50               0
9.8                            0.0503829127968012 -99.708436836395 0.000933381587876287 -127.652920472515 0.990389112802173 -21.1452649919788 0.000482424963491668 -153.593519438878
                               0.000933381572713785 -127.652921130901 0.0154347599801193 -13.0765787279584 0.000366744516642583 -88.1054447989482 0.985207309118476 -18.5213605823891
                               0.990389112803462 -21.1452649919515 0.000366744494431727 -88.1054419934398 0.0492962055246058 -105.478163199102 0.000970292144419202 -84.7197486637007
                               0.000482424997534311 -153.593517716027 0.985207309117187 -18.5213605824145 0.000970292222798614 -84.7197503269605 0.0134016426396796 -10.6672906132203
! Gamma         0                0                0                0                0                0                0                0
! Port Impedance         100              0                50               0                100              0                50               0
9.85                           0.0506334637145777 -99.8385938718582 0.000940020275208925 -127.85398357097 0.99036776980603 -21.2523518620843 0.000486033457602825 -153.823916545729
                               0.000940020257620234 -127.853984180339 0.0154516403816957 -13.1873252823851 0.000368843289251907 -87.981128673591 0.985197107521637 -18.6147968996459
                               0.990367769807033 -21.2523518620537 0.000368843267617563 -87.9811260001769 0.0495402375655774 -105.638144056412 0.000977030200199514 -84.7612841975312
                               0.000486033490930361 -153.823914871568 0.985197107520632 -18.6147968996753 0.000977030278663358 -84.7612859607773 0.0133992001243143 -10.7593642272799
! Gamma         0                0                0                0                0                0                0                0
! Port Impedance         100              0                50               0                100              0                50               0
9.9                            0.0508838051725573 -99.9683906713013 0.00094668490345608 -128.054273006006 0.99034640755326 -21.3594385130491 0.000489659221311557 -154.05392894584
                               0.000946684883480484 -128.054273564039 0.0154685202963685 -13.2974193950674 0.000370951785281074 -87.8570326111962 0.985186956709249 -18.7082351109889
                               0.990346407553973 -21.3594385130153 0.000370951764187431 -87.8570300812068 0.0497840584372608 -105.797772607017 0.000983793916294478 -84.8032705385275
                               0.000489659253848721 -154.053927312777 0.985186956708532 -18.7082351110221 0.00098379399478288 -84.8032723904826 0.0133966773170381 -10.8506632222817
! Gamma         0                0                0                0                0                0                0                0
! Port Impedance         100              0                50               0                100              0                50               0
9.95                           0.0511339366731674 -100.097831450722 0.000953375314822952 -128.253743699169 0.990325024048696 -21.4665249610799 0.000493301704591565 -154.283539628659
                               0.000953375292496567 -128.253744203496 0.015485400950481 -13.4068618825491 0.000373070251063088 -87.7332465874012 0.985176855153807 -18.801675242072
                               0.990325024049118 -21.4665249610431 0.000373070230473293 -87.7332442121488 0.0500276688259454 -105.957053542404 0.000990583594122277 -84.8457272447764
                               0.000493301736262217 -154.283538029308 0.985176855153381 -18.8016752421088 0.000990583672574229 -84.8457291743373 0.0133940740090543 -10.9411969118491
! Gamma         0                0                0                0                0                0                0                0
! Port Impedance         100              0                50               0                100              0                50               0
10                             0.0513838577153473 -100.226920349044 0.00096009135607425 -128.452353001492 0.990303617310798 -21.5736112209974 0.000496960364027976 -154.512732743919
                               0.000960091331430673 -128.452353449688 0.0155022835400968 -13.5156535862897 0.000375198920911812 -87.6098580839762 0.985166801342165 -18.895117317795
                               0.990303617310928 -21.5736112209575 0.000375198900788454 -87.6098558743948 0.0502710693864091 -106.115991455601 0.000997399519469309 -84.8886725451029
                               0.000496960394755499 -154.512731171116 0.985166801342029 -18.8951173178355 0.000997399597823126 -84.8886745413579 0.0133913899996829 -11.0309744261153
! Gamma         0                0                0                0                0                0                0                0
! Port Impedance         100              0                50               0                100              0                50               0
10.05                          0.0516335677945437 -100.355661429762 0.000966832878273984 -128.650060596369 0.990282185371456 -21.6806973062704 0.000500634662644546 -154.741493553058
                               0.000966832851344252 -128.650060986008 0.015519169231982 -13.6237953728279 0.000377338017330826 -87.4869521356974 0.985156793775421 -18.9885613623295
                               0.990282185371296 -21.6806973062277 0.000377337997635417 -87.4869501026925 0.050514260742451 -106.274590843692 0.0010042419629443 -84.93212340078
                               0.000500634692352496 -154.741491999926 0.985156793775575 -18.9885613623735 0.00100424204113791 -84.9321254529629 0.0133886250961055 -11.1200047162061
! Gamma         0                0                0                0                0                0                0                0
! Port Impedance         100              0                50               0                100              0                50               0
10.1                           0.0518830664027103 -100.48405868254 0.000973599736548154 -128.846828406617 0.990260726275797 -21.78778322905  0.00050432406974058 -154.969808382401
                               0.000973599707360223 -128.84682873528 0.0155360591645614 -13.7312881339491 0.000379487751223749 -87.3646113761044 0.985146830968807 -19.082007399143
                               0.990260726275347 -21.7877832290045 0.000379487731917164 -87.3646095301963 0.0507572434874064 -106.432856110272 0.00101111118042466 -84.9760955640614
                               0.000504324098349967 -154.969806842061 0.985146830969249 -19.0820073991904 0.00101111125839509 -84.9760976615347 0.0133857791131157 -11.2082965585898
! Gamma         0                0                0                0                0                0                0                0
! Port Impedance         100              0                50               0                100              0                50               0
10.15                          0.052132353028313 -100.612116024774 0.000980391789859531 -129.042620504873 0.990239238081984 -21.8948690002015 0.000508028060729288 -155.197664577278
                               0.000980391758439388 -129.04262077008 0.0155529544488466 -13.8381327868516 0.000381648322107849 -87.2429160807482 0.985136911451567 -19.1754554510232
                               0.990239238081248 -21.8948690001533 0.000381648303149787 -87.2429144323994 0.0510000181846528 -106.590791567825 0.00101800741348401 -85.020603634312
                               0.000508028088161773 -155.197663043203 0.985136911452296 -19.1754554510739 0.0010180074911681 -85.0206057666597 0.0133828518728779 -11.2958585592921
! Gamma         0                0                0                0                0                0                0                0
! Port Impedance         100              0                50               0                100              0                50               0
10.2                           0.0523814271563383 -100.739837303128 0.00098720890080069 -129.237403027146 0.99021771886102 -22.0019546293363 0.000511746116984749 -155.42505045785
                               0.000987208867171227 -129.237403226508 0.0155698561693386 -13.9443302743104 0.000383819918328044 -87.1219442099367 0.985127033766839 -19.2689055401013
                               0.99021771886    -22.0019546292856 0.000383819899677711 -87.121942769394 0.0512425853681026 -106.748401440039 0.00102493088980806 -85.0656611119355
                               0.000511746143161031 -155.425048923656 0.98512703376785 -19.2689055401551 0.00102493096714186 -85.0656632687896 0.0133798432046926 -11.3826991579891
! Gamma         0                0                0                0                0                0                0                0
! Port Impedance         100              0                50               0                100              0                50               0
10.25                          0.0526302882683052 -100.867226295034 0.000994050935400959 -129.431144090057 0.990196166696548 -22.1090401248425 0.000515477725693423 -155.651955276298
                               0.000994050899582735 -129.431144221157 0.0155867653849093 -14.0498815648522 0.000386002717272921 -87.0017714499195 0.985117196471525 -19.3623576878744
                               0.990196166695251 -22.1090401247895 0.000386002698888562 -87.0017702272166 0.0514849455426838 -106.905689864047 0.00103188182359834 -85.1112804495842
                               0.000515477750533934 -155.651953735786 0.985117196472814 -19.3623576879312 0.00103188190051764 -85.1112826207673 0.0133767529447636 -11.4688266319828
! Gamma         0                0                0                0                0                0                0                0
! Port Impedance         100              0                50               0                100              0                50               0
10.3                           0.0528789358422801 -100.994286710165 0.00100091776294706 -129.623813710809 0.990174579684655 -22.216125493915 0.000519222379710645 -155.878369175155
                               0.00100091772495791 -129.623813771245 0.0156036831296516 -14.1547876529086 0.000388196885592729 -86.8824712526844 0.985107398136162 -19.4558119152277
                               0.990174579683085 -22.2161254938598 0.000388196867431673 -86.8824702577481 0.0517270991848115 -107.062660892605 0.00103886041596283 -85.1574731015695
                               0.000519222403134794 -155.878367622283 0.985107398137722 -19.4558119152874 0.00103886049240262 -85.157475277042 0.0133735809359796 -11.5542491000511
! Gamma         0                0                0                0                0                0                0                0
! Port Impedance         100              0                50               0                100              0                50               0
10.35                          0.053127369352899 -101.121022191863 0.0010078092558153 -129.815383730368 0.990152955933672 -22.3232107425841 0.000522979577423103 -156.104283147414
                               0.00100780921566998 -129.815383717707 0.015620610413711 -14.2590495589846 0.000390402579416665 -86.7641148755631 0.985097637344788 -19.5492682424558
                               0.990152955931836 -22.3232107425267 0.000390402561435297 -86.7641141180497 0.0519690467428466 -107.219318496218 0.00104586685529387 -85.2042495710044
                               0.000522979599349241 -156.104281576287 0.985097637346613 -19.5492682425182 0.00104586693118816 -85.2042517409165 0.0133703270276958 -11.6389745261968
! Gamma         0                0                0                0                0                0                0                0
! Port Impedance         100              0                50               0                100              0                50               0
10.4                           0.0533755882713882 -101.247436318549 0.0010147252893144 -130.005827739589 0.990131293563973 -22.4302958757435 0.000526748822611707 -156.329688997378
                               0.00101472524702652 -130.005827651507 0.0156375482240927 -14.362668329812 0.000392619944572459 -86.6467714190634 0.98508791269481 -19.6427266892834
                               0.990131293561881 -22.4302958756842 0.000392619926726599 -86.6467709084545 0.0522107886375444 -107.375666565198 0.00105290131763366 -85.251619454903
                               0.000526748842958204 -156.329687402312 0.985087912696892 -19.6427266893482 0.00105290139291745 -85.2516216094644 0.0133669910755231 -11.7230107232782
! Gamma         0                0                0                0                0                0                0                0
! Port Impedance         100              0                50               0                100              0                50               0
10.45                          0.0536235920655904 -101.373532605104 0.00102166574154253 -130.195121008017 0.990109590707786 -22.5373808971781 0.000530529624327018 -156.554579303648
                               0.00102166569712158 -130.195120842152 0.0156544975254469 -14.4656450384996 0.000394849116805966 -86.5305078646783 0.985078222796865 -19.7361872748853
                               0.990109590705446 -22.5373808971171 0.00039484909905037 -86.5305076103579 0.0524523252624953 -107.531708911652 0.00105996396703167 -85.2995914875291
                               0.000530529643011237 -156.554577679071 0.985078222799194 -19.7361872749524 0.00105996404163773 -85.2995936171497 0.0133635729411234 -11.8063653565365
! Gamma         0                0                0                0                0                0                0                0
! Port Impedance         100              0                50               0                100              0                50               0
10.5                           0.053871380199995 -101.499314504201 0.00102863049324984 -130.383240415686 0.990087845508987 -22.64446580959  0.000534321496759297 -156.77894738254
                               0.00102863044670349 -130.383240169739 0.015671459260832 -14.5679807846796 0.00039709022200136 -86.4153891115473 0.985068566274676 -19.8296500179063
                               0.990087845506408 -22.6444658095274 0.000397090204290173 -86.4153891226624 0.052693656984551 -107.687449271446 0.0010670549558875 -85.3481735816244
                               0.00053432151369785 -156.778945723053 0.985068566277243 -19.8296500179755 0.00106705502974886 -85.3481756768159 0.013360072492009 -11.8890459470226
! Gamma         0                0                0                0                0                0                0                0
! Port Impedance         100              0                50               0                100              0                50               0
10.55                          0.0541189521357686 -101.624785407631 0.0010356194277121 -130.570164387111 0.990066056122905 -22.7515506146244 0.000538123959120572 -157.002787253539
                               0.00103561937904525 -130.570164058798 0.0156884343524542 -14.6696766946461 0.000399343376400754 -86.3014780129592 0.985058941764915 -19.9231149364799
                               0.9900660561201  -22.7515506145606 0.00039934335868705 -86.3014782984883 0.0529347841442464 -107.842891306075 0.00107417442528387 -85.3973728682894
                               0.000538123974229517 -157.002785553861 0.98505894176771 -19.923114936551 0.00107417449833288 -85.3973749197195 0.0133564896013517 -11.9710598749262
! Gamma         0                0                0                0                0                0                0                0
! Port Impedance         100              0                50               0                100              0                50               0
10.6                           0.0543663073307902 -101.749948647585 0.00104263243061311 -130.755872828139 0.990044220716133 -22.8586353128949 0.00054193653552583 -157.226093605528
                               0.0010426323798288 -130.755872415241 0.0157054237023925 -14.7707339214872 0.000401608686824928 -86.1888354119487 0.985049347917057 -20.0165820482469
                               0.990044220713112 -22.8586353128298 0.000401608669061173 -86.1888359806986 0.0531757070562078 -107.998038604513 0.00108132250531131 -85.4471957348882
                               0.000541936548720908 -157.226091860571 0.985049347920067 -20.0165820483197 0.00108132257748028 -85.4471977333323 0.0133528241477899 -12.0524143828049
! Gamma         0                0                0                0                0                0                0                0
! Port Impedance         100              0                50               0                100              0                50               0
10.65                          0.0546134452396877 -101.874807497918 0.00104966938993394 -130.940347065085 0.990022337466324 -22.9657199040069 0.000545758754881072 -157.448861764507
                               0.00104966933703199 -130.940346565422 0.0157224281932961 -14.871153645205 0.000403886250892957 -86.0775201766209 0.985039783393233 -20.1100513703732
                               0.990022337463102 -22.9657199039408 0.000403886233030766 -86.0775210373121 0.0534164260095558 -108.152894684984 0.00108849931538063 -85.4976478614577
                               0.000545758766076806 -157.448859969272 0.985039783396445 -20.1100513704475 0.00108849938660068 -85.497649797824 0.0133490760152496 -12.1331165787238
! Gamma         0                0                0                0                0                0                0                0
! Port Impedance         100              0                50               0                100              0                50               0
10.7                           0.054860365313878 -101.999365175371 0.00105673019585 -131.123569786235 0.990000404562006 -23.0728043865819 0.000549590150771668 -157.671087662386
                               0.00105673014082854 -131.123569197648 0.0157394486890693 -14.9709370728343 0.000406176157241577 -85.9675892353167 0.985030246868085 -20.2035229195673
                               0.990000404558597 -23.0728043865151 0.000406176139231826 -85.9675903963967 0.0536569412682949 -108.307462996711 0.00109570496452749 -85.5487342555887
                               0.000549590159882056 -157.671085812011 0.985030246871485 -20.2035229196427 0.00109570503472992 -85.5487361209378 0.0133452450927617 -12.2131734393033
! Gamma         0                0                0                0                0                0                0                0
! Port Impedance         100              0                50               0                100              0                50               0
10.75                          0.0551070670016096 -102.123624840786 0.00106381474063397 -131.305524985502 0.989978420202386 -23.1798887582802 0.000553430261357697 -157.892767807066
                               0.00106381468348781 -131.305524305926 0.0157564860355307 -15.0700854385497 0.000408478485744313 -85.85909761088  0.985020737028614 -20.2969967120968
                               0.989978420198804 -23.1798887582128 0.000408478467536959 -85.8590990807385 0.0538972530717024 -108.46174692159 0.00110293955170593 -85.6004592858888
                               0.000553430268296656 -157.892765896875 0.985020737032188 -20.2969967121732 0.00110293962082072 -85.6004610713586 0.0133413312742923 -12.2925918126878
! Gamma         0                0                0                0                0                0                0                0
! Port Impedance         100              0                50               0                100              0                50               0
10.8                           0.0553535497480039 -102.247589600272 0.00107092291856517 -131.48619790844 0.98995638259716 -23.2869730158226 0.000557278629269646 -158.113899253524
                               0.00107092285928733 -131.486197135806 0.0157735410610615 -15.1686000037608 0.000410793307729306 -85.7520984552897 0.985011252574038 -20.3904727638055
                               0.989956382593421 -23.286973015755 0.000410793289273793 -85.7521002419986 0.0541373616346973 -108.615749775836 0.00111020316607472 -85.6528267138832
                               0.000557278633949557 -158.113897278862 0.98501125257777 -20.3904727638826 0.00111020323403175 -85.6528284107973 0.0133373344585692 -12.3713784214153
! Gamma         0                0                0                0                0                0                0                0
! Port Impedance         100              0                50               0                100              0                50               0
10.85                          0.0555998129951044 -102.371262506365 0.00107805462584452 -131.665575000091 0.989934289966321 -23.3940571550126 0.000561134801509231 -158.334479576193
                               0.00107805456442602 -131.66557413242 0.015790614577227 -15.2664820572033 0.000413120686196869 -85.6466430833475 0.985001792215633 -20.4839510901287
                               0.989934289962442 -23.3940571549448 0.000413120667441668 -85.6466451950147 0.0543772671482139 -108.769474811574 0.00111749588727347 -85.7058397248088
                               0.000561134803842675 -158.334477532608 0.985001792219505 -20.4839510902063 0.00111749595400246 -85.7058413245777 0.0133332545489222 -12.449539865222
! Gamma         0                0                0                0                0                0                0                0
! Port Impedance         100              0                50               0                100              0                50               0
10.9                           0.0558458561819233 -102.494646559146 0.00108520976051625 -131.843643854988 0.989912140539977 -23.5011411707566 0.000564998329353122 -158.554506842316
                               0.00108520969694507 -131.843642890363 0.0158077073793896 -15.3637329150158 0.00041546067603522 -85.5427810068431 0.984992354676588 -20.5774317061087
                               0.989912140535977 -23.5011411706889 0.000415460656928299 -85.5427834512644 0.0546169697795584 -108.922925218389 0.00112481778569269 -85.7595009569596
                               0.000564998329250941 -158.554504725389 0.984992354680583 -20.5774317061865 0.00112481785112227 -85.7595024511036 0.0133290914531186 -12.5270826237541
! Gamma         0                0                0                0                0                0                0                0
! Port Impedance         100              0                50               0                100              0                50               0
10.95                          0.0560916787444906 -102.617744707347 0.00109238822239086 -132.020393169175 0.989889932558162 -23.6082250570846 0.000568868768257644 -158.773979586311
                               0.00109238815665327 -132.020392105725 0.0158248202472938 -15.4603539208102 0.000417813324235782 -85.4405599677206 0.98498293869185 -20.6709146264101
                               0.989889932554058 -23.6082250570173 0.000417813304724003 -85.4405627526491 0.0548564696727623 -109.076104124834 0.00113216892273275 -85.8138125296993
                               0.000568868765630287 -158.773977391763 0.984982938695951 -20.6709146264878 0.00113216898679146 -85.8138139098741 0.013324845083213 -12.6040130592166
! Gamma         0                0                0                0                0                0                0                0
! Port Impedance         100              0                50               0                100              0                50               0
11                             0.056337280115907 -102.740559849424 0.0010995899129751 -132.195812693692 0.989867664270649 -23.7153088071699 0.000572745677768297 -158.992896785304
                               0.00109958984505562 -132.195811529649 0.0158419539456471 -15.5563464457324 0.000420178670105883 -85.3400259719264 0.984973543007976 -20.764399865334
                               0.989867664266462 -23.7153088071031 0.000420178650135512 -85.3400291049379 0.0550957669489274 -109.229014599893 0.00113954935105637 -85.8687760706974
                               0.000572745672526798 -158.992894509033 0.984973543012162 -20.7643998654113 0.0011395494136727 -85.8687773286392 0.013320515355391 -12.6803374189347
! Gamma         0                0                0                0                0                0                0                0
! Port Impedance         100              0                50               0                100              0                50               0
11.05                          0.056582659726397 -102.86309483461 0.00110681473540751 -132.369893190423 0.989845333936773 -23.8223924133477 0.00057662862143324 -159.211257835633
                               0.00110681466528734 -132.36989192402 0.0158591092246756 -15.6517118885104 0.000422556745481091 -85.2412233223337 0.984964166382976 -20.8578874368324
                               0.989845333932523 -23.8223924132816 0.000422556724998105 -85.2412268108336 0.055334861706564 -109.38165965441 0.0011469591148364 -85.9243927414363
                               0.000576628613486513 -159.211255473542 0.984964166387225 -20.8578874369091 0.00114695917593718 -85.92439386905  0.0133161021898226 -12.7560618378519
! Gamma         0                0                0                0                0                0                0                0
! Port Impedance         100              0                50               0                100              0                50               0
11.1                           0.0568278170033632 -102.985352463941 0.00111406259439238 -132.542626389096 0.989822939825245 -23.929475867134 0.000580517166715003 -159.429062530136
                               0.00111406252205119 -132.54262501864 0.015876286820664 -15.7464516754965 0.000424947574935749 -85.1441946518927 0.984954807586161 -20.9513773545217
                               0.989822939820955 -23.929475867069 0.000424947553885023 -85.1441985031664 0.0555737540219218 -109.53404224247 0.0011543982499899 -85.9806632621817
                               0.000580517155971821 -159.42906007827 0.984954807590454 -20.9513773545974 0.00115439830950206 -85.98066425148  0.0133116055105221 -12.8311923409591
! Gamma         0                0                0                0                0                0                0                0
! Port Impedance         100              0                50               0                100              0                50               0
11.15                          0.0570727513714425 -103.10733549126 0.00112133339614328 -132.714004946277 0.98980048021398 -24.0365591592437 0.000584410884908779 -159.646311036595
                               0.0011213333215592 -132.714003470197 0.015893487456486 -15.8405672606944 0.000427351175990803 -85.0489809565157 0.984945465397994 -21.0448696316959
                               0.989800480209671 -24.03655915918  0.000427351154316743 -85.048985177683 0.0558124439493134 -109.686165262753 0.00116186678441208 -86.0375879355829
                               0.00058441087127704 -159.646308491048 0.984945465402308 -21.0448696317704 0.00116186684226262 -86.0375887786371 0.0133070252452047 -12.9057348456485
! Gamma         0                0                0                0                0                0                0                0
! Port Impedance         100              0                50               0                100              0                50               0
11.2                           0.0573174622525649 -103.229046624204 0.00112862704832545 -132.884022405822 0.989777953389912 -24.1436422796076 0.000588309351062035 -159.863003876984
                               0.00112862697147405 -132.884020822581 0.0159107118421124 -15.9340601257784 0.000429767559320479 -84.9556216279066 0.984936138609935 -21.1383642813399
                               0.989777953385608 -24.1436422795454 0.000429767536966682 -84.9556262259246 0.0560509315214343 -109.838031559843 0.00116936473819864 -86.0951666693782
                               0.000588309334449063 -159.863001233974 0.984936138614245 -21.1383642814128 0.0011693647943136 -86.0951673584027 0.0133023613251542 -12.979695164009
! Gamma         0                0                0                0                0                0                0                0
! Port Impedance         100              0                50               0                100              0                50               0
11.25                          0.0575619490660101 -103.350488525161 0.00113594346000305 -133.052673160974 0.989755357648825 -24.2507252173895 0.000592212143894594 -160.079141907518
                               0.00113594338085833 -133.052671469095 0.0159279606751109 -16.0269317801081 0.000432196728957035 -84.8641544860711 0.984926826024285 -21.2318613161414
                               0.989755357644551 -24.2507252173291 0.000432196705866599 -84.8641594678266 0.0562892167496717 -109.989643925501 0.00117689212386433 -86.1533989980426
                               0.000592212124207095 -160.079139163349 0.984926826028569 -21.2318613162125 0.00117689217816946 -86.153399525365 0.0132976136850873 -13.0530790050568
! Gamma         0                0                0                0                0                0                0                0
! Port Impedance         100              0                50               0                100              0                50               0
11.3                           0.057806211228471 -103.471663812209 0.00114328254158986 -133.219952417698 0.989732691295181 -24.3578079610026 0.000596118845724961 -160.29472629973
                               0.00114328246012347 -133.219950615796 0.015945234641126 -16.1191837607227 0.000434638682492856 -84.7746158118649 0.984917526454039 -21.3253607485039
                               0.989732691290961 -24.3578079609443 0.000434638658607876 -84.7746211841262 0.0565272996244132 -110.141005099912 0.00118444894655446 -86.2122841037042
                               0.000596118822869329 -160.294723450824 0.984917526458271 -21.3253607485727 0.00118444899897463 -86.2122844617407 0.013292782263028 -13.1258919769025
! Gamma         0                0                0                0                0                0                0                0
! Port Impedance         100              0                50               0                100              0                50               0
11.35                          0.0580502481541111 -103.592575060029 0.00115064420479798 -133.385856159609 0.989709952641946 -24.4648904981255 0.000600029042394565 -160.509758522244
                               0.00115064412098002 -133.385854246369 0.0159625344143481 -16.2108176323341 0.00043709341127969 -84.6870403793096 0.984908238722732 -21.4188625905575
                               0.989709952637806 -24.4648904980695 0.000437093386542305 -84.6870461486289 0.0567651801153429 -110.29211777289 0.00119203520424702 -86.2718208360136
                               0.000600029016275996 -160.509755565043 0.984908238726886 -21.4188625906238 0.00119203525470713 -86.2718210172841 0.0132878670001811 -13.1981395888592
! Gamma         0                0                0                0                0                0                0                0
! Port Impedance         100              0                50               0                100              0                50               0
11.4                           0.0582940592546295 -103.71322480081 0.00115802836259637 -133.550381114349 0.989687140010424 -24.5719728157175 0.000603942323197183 -160.724240323249
                               0.00115802827639478 -133.55037908847 0.0159798606579682 -16.3018349873073 0.00043956090062803 -84.6014614877215 0.984898961664284 -21.5123668541711
                               0.989687140006391 -24.571972815664 0.0004395608749794 -84.60146766055  0.0570028581717374 -110.442984585053 0.0011996508879569 -86.3320077310805
                               0.000603942293719713 -160.724237254263 0.984898961668334 -21.5123668542346 0.00119965093638077 -86.3320077282628 0.0132828678408104 -13.2698272534947
! Gamma         0                0                0                0                0                0                0                0
! Port Impedance         100              0                50               0                100              0                50               0
11.45                          0.0585376439393235 -103.833615525115 0.00116543492916414 -133.713524720852 0.989664251730089 -24.6790549000335 0.000607858280808056 -160.938173713875
                               0.00116543484054539 -133.713522581197 0.0159972140246182 -16.3922374456283 0.000442041130001299 -84.5179109935999 0.984889694122854 -21.6058735509632
                               0.989664251726192 -24.6790548999829 0.000442041103381744 -84.5179175763827 0.057240333722753 -110.593608128968 0.001207295981925 -86.392843029969
                               0.000607858247876495 -160.938170529767 0.984889694126772 -21.6058735510235 0.00120729602823649 -86.3928428357575 0.0132777847321207 -13.3409602886215
! Gamma         0                0                0                0                0                0                0                0
! Port Impedance         100              0                50               0                100              0                50               0
11.5                           0.0587810016151519 -103.953749682744 0.00117286381984877 -133.875285098446 0.989641286138425 -24.7861367366388 0.00061177651121715 -161.151560952236
                               0.0011728637287779 -133.875282843894 0.0160145951567993 -16.4820266548691 0.000444534073207402 -84.436419342921 0.984880434952684 -21.6993826923126
                               0.989641286134692 -24.7861367365912 0.000444534045557513 -84.4364263417623 0.0574776066777085 -110.743990950263 0.00121497046380749 -86.454324695859
                               0.000611776474734187 -161.151557649649 0.984880434956441 -21.6993826923693 0.00121497050793009 -86.4543243030947 0.0132726176241417 -13.4115439192416
! Gamma         0                0                0                0                0                0                0                0
! Port Impedance         100              0                50               0                100              0                50               0
11.55                          0.0590241316868005 -104.073629683569 0.00118031495112912 -134.035661016704 0.989618241580761 -24.8932183104228 0.000615696613663367 -161.364404528249
                               0.0011803148575693 -134.035658646227 0.0160320046872967 -16.5712042901361 0.000447039698592146 -84.3570156019929 0.984871183017951 -21.7928942893689
                               0.989618241577222 -24.8932183103785 0.000447039669850915 -84.3570230231179 0.0577146769263615 -110.894135548714 0.00122267430486062 -86.5164504308995
                               0.000615696573531896 -161.364401103939 0.984871183021519 -21.7928942894217 0.00122267434671722 -86.5164498325108 0.0132673664696168 -13.4815832794272
! Gamma         0                0                0                0                0                0                0                0
! Port Impedance         100              0                50               0                100              0                50               0
11.6                           0.0592670335567483 -104.193257898347 0.0011877882405731 -134.194651866564 0.989595116410114 -25.0002996056128 0.000619618190569848 -161.576707148926
                               0.00118778814448591 -134.194649379221 0.0160494432395826 -16.6597720540166 0.000449557969222971 -84.2797274897668 0.98486193719262 -21.8864083530626
                               0.9895951164068  -25.0002996055722 0.000449557939329744 -84.2797353391018 0.0579515443391828 -111.044044379294 0.00123040747011471 -86.5792176922149
                               0.000619618146691638 -161.576703599706 0.984861937195968 -21.8864083531112 0.00123040750962772 -86.5792168812093 0.0132620312238918 -13.5510834141617
! Gamma         0                0                0                0                0                0                0                0
! Port Impedance         100              0                50               0                100              0                50               0
11.65                          0.0595097066253321 -104.312636659527 0.0011952836068038 -134.352257632726 0.989571908987031 -25.1073806057877 0.000623540847482816 -161.788471724548
                               0.00119528350814933 -134.352255027638 0.0160669114282041 -16.747731676507 0.000452088843076157 -84.2045814086319 0.984852696360289 -21.9799248941153
                               0.989571908983971 -25.1073806057509 0.000452088811969022 -84.2045896920722 0.0581882087676203 -111.193719853201 0.00123816991854969 -86.6426237070775
                               0.000623540799759031 -161.788468047312 0.984852696363386 -21.9799248941591 0.00123816995564116 -86.642622676571 0.0132566118448124 -13.6200492811185
! Gamma         0                0                0                0                0                0                0                0
! Port Impedance         100              0                50               0                100              0                50               0
11.7                           0.0597521502908167 -104.431768262021 0.00120280096946305 -134.508478867061 0.989548617679431 -25.2144612938898 0.000627464193009987 -161.999701355359
                               0.00120280086819953 -134.508476143367 0.0160844098591674 -16.835084914945 0.000454632273217595 -84.131602475416 0.984843459414045 -22.0734439230483
                               0.989548617676659 -25.2144612938573 0.00045463224083482 -84.1316111987345 0.0584246700443646 -111.343164338863 0.00124596160326224 -86.7066654874464
                               0.000627464141341183 -161.999697547034 0.984843459416859 -22.0734439230873 0.00124596163785322 -86.7066642306951 0.0132511082926141 -13.6884857524013
! Gamma         0                0                0                0                0                0                0                0
! Port Impedance         100              0                50               0                100              0                50               0
11.75                          0.0599943639494582 -104.550654963972 0.00121034024917524 -134.663316662736 0.989525240862462 -25.3215416522384 0.000631387838763067 -162.210399318859
                               0.00121034014526002 -134.663313819735 0.0161019391302963 -16.9218335539162 0.00045718820798214 -84.0608145525505 0.984834225256316 -22.1669654501931
                               0.989525240860011 -25.3215416522103 0.000457188174261207 -84.0608237213773 0.0586609279836033 -111.492380162902 0.00125378247162649 -86.7713398441775
                               0.000631387783049123 -162.210395376434 0.984834225258814 -22.1669654502267 0.00125378250363835 -86.7713383544489 0.0132455205298296 -13.7563976162288
! Gamma         0                0                0                0                0                0                0                0
! Port Impedance         100              0                50               0                100              0                50               0
11.8                           0.0602363469955748 -104.669298987499 0.00121790136751737 -134.81677262989 0.989501776918342 -25.428621662541 0.000635311399299572 -162.420569057621
                               0.00121790126090669 -134.816769666905 0.0161194998315955 -17.0079794051713 0.000459756591150207 -83.9922402783094 0.984824992798721 -22.2604894856993
                               0.989501776916244 -25.4286216625176 0.000459756556027954 -83.9922498982463 0.0588969823812749 -111.641369611089 0.0012616324654568 -86.8366434000877
                               0.000635311339439373 -162.420564978146 0.984824992800871 -22.2604894857271 0.0012616324948105 -86.8366416707872 0.0132398485211823 -13.8237895785816
! Gamma         0                0                0                0                0                0                0                0
! Port Impedance         100              0                50               0                100              0                50               0
11.85                          0.0604780988216159 -104.787702519421 0.00122548424698453 -134.968848871803 0.989478224236214 -25.5357013059054 0.000639234492067948 -162.630214167841
                               0.00122548413763252 -134.968845788253 0.0161370925455884 -17.0935243075222 0.000462337362119941 -83.9259010974551 0.984815760961931 -22.3540160395438
                               0.989478224234505 -25.535701305887 0.000462337325532939 -83.9259111740057 0.0591328330153191 -111.79013492926 0.00126951152115904 -86.9025726028533
                               0.000639234427960493 -162.630209948443 0.984815760963696 -22.3540160395655 0.00126951154777444 -86.9025706274509 0.0132340922334976 -13.8906662648011
! Gamma         0                0                0                0                0                0                0                0
! Port Impedance         100              0                50               0                100              0                50               0
11.9                           0.0607196188182273 -104.905867711974 0.00123308881096015 -135.119547962203 0.989454581212004 -25.642780562851 0.000643156737352914 -162.839338388167
                               0.00123308869882021 -135.119544757579 0.0161547178476547 -17.1784701267302 0.000464930456078212 -83.8618172911727 0.984806528675517 -22.4475451215393
                               0.989454581210719 -25.6427805628378 0.000464930417962643 -83.8618278296614 0.0593684796459172 -111.938678324217 0.00127741956988262 -86.9691237371273
                               0.000643156668895667 -162.839334025985 0.984806528676863 -22.4475451215545 0.0012774195936797 -86.969121509179 0.0132282516356055 -13.9570322211383
! Gamma         0                0                0                0                0                0                0                0
! Port Impedance         100              0                50               0                100              0                50               0
11.95                          0.060960906374325 -105.023796683499 0.00124071498368412 -135.26887292338 0.989430846248275 -25.7498594133197 0.000647077758224731 -163.047945589377
                               0.00124071486870805 -135.268869597189 0.0161723763063508 -17.2628187553972 0.000467535804167751 -83.8000080068446 0.984797294877809 -22.5410767413421
                               0.98943084624745 -25.7498594133121 0.000467535764459502 -83.8000190124582 0.0596039220157349 -112.087001964606 0.00128535653766492 -87.0362929361813
                               0.000647077685313965 -163.047941081546 0.984797294878701 -22.5410767413504 0.00128535655856274 -87.0362904493807 0.0132223266982514 -14.0228919162752
! Gamma         0                0                0                0                0                0                0                0
! Port Impedance         100              0                50               0                100              0                50               0
12                             0.0612019608771621 -105.141491519122 0.00124836269022544 -135.416827205193 0.989407017754087 -25.8569378366866 0.000650997180483863 -163.256039763985
                               0.00124836257236419 -135.416823757092 0.0161900684837254 -17.3465721128366 0.000470153333651285 -83.7404912875708 0.984788058515754 -22.6346109084604
                               0.989407017753759 -25.8569378366848 0.000470153292285482 -83.7405027655719 0.0598391598501563 -112.235107981766 0.00129332234557604 -87.1040761929944
                               0.000650997103017079 -163.256035107825 0.984788058516155 -22.6346109084614 0.00129332236349351 -87.1040734410416 0.0132163173940057 -14.0882497427881
! Gamma         0                0                0                0                0                0                0                0
! Port Impedance         100              0                50               0                100              0                50               0
